LengthSchedulingHorizon=2995;
nAttributes=5;
SetupCosts=[[0, 0, 0, 0, 0], [14, 14, 14, 14, 14], [14, 14, 14, 14, 14], [14, 14, 14, 14, 14], [14, 14, 14, 14, 14], [14, 14, 14, 14, 14]];
SetupTimes=[[0, 0, 0, 0, 0], [15, 15, 15, 15, 15], [15, 15, 15, 15, 15], [15, 15, 15, 15, 15], [15, 15, 15, 15, 15], [15, 15, 15, 15, 15]];
nMachines=2;
MinCap=[0, 0];
MaxCap=[20, 20];

initState=[3, 5];
nShifts=1;
ShiftStartTimes = [[699], [1624]];
ShiftEndTimes = [[1992], [2604]];
nJobs=10;
EligibleMachines = [{1, 2}, {1}, {1, 2}, {1, 2}, {1, 2}, {1, 2}, {1, 2}, {1, 2}, {1}, {1}];
EarliestStart=[21, 10, 34, 0, 47, 0, 24, 4, 30, 5];
LatestEnd=[59, 66, 150, 153, 86, 62, 123, 93, 84, 113];
MinTime=[25, 36, 99, 78, 21, 46, 82, 56, 44, 100];
MaxTime=[61, 48, 99, 94, 64, 53, 90, 58, 85, 100];
JobSize=[5, 10, 10, 20, 11, 9, 3, 1, 2, 20];
Attribute=[3, 5, 1, 3, 3, 5, 5, 2, 5, 4];

upper_bound_integer_objective=13009500;
mult_factor_total_runtime=840;
mult_factor_finished_toolate=1239000;
mult_factor_total_setuptimes=0;
mult_factor_total_setupcosts=885;
running_time_bound=587;
min_duration=21;
max_duration=100;
max_setup_time=15;
max_setup_cost=14;
